% File represents an instance of a Composite Structure problem to be solved by a CP framework
% Created on 2025-03-26 10:41:24.398
T = 58;
n = 16;
m = 24;
edges = [(2, 1),
(6, 5),
(10, 9),
(14, 13),
(3, 2),
(7, 6),
(10, 11),
(14, 15),
(3, 4),
(8, 7),
(12, 11),
(15, 16),
(1, 5),
(9, 5),
(9, 13),
(2, 6),
(10, 6),
(10, 14),
(3, 7),
(7, 11),
(11, 15),
(8, 4),
(8, 12),
(12, 16)];
counts = [|12, 10, 12, 18,
|12, 12, 12, 18,
|12, 16, 12, 18,
|10, 16, 10, 16,
|12, 8, 12, 18,
|12, 10, 12, 18,
|12, 14, 12, 18,
|12, 16, 12, 18,
|12, 10, 12, 18,
|12, 10, 12, 22,
|12, 10, 12, 16,
|12, 12, 12, 16,
|12, 8, 12, 16,
|12, 10, 12, 18,
|12, 8, 12, 16,
|12, 6, 12, 16|];
